# Objective value = 2.9820116000480550e+02
x[0] 0
x[1] 0
x[2] 0
x[3] 0
x[4] 1
x[5] -2.4666666670161116e-07
x[6] 0
x[7] 1
x[8] 1
x[9] 1
x[10] 0
x[11] 0
x[12] 0
x[13] 0
x[14] 0
x[15] 0
x[16] 1
x[17] 1
x[18] 0
x[19] 0
x[20] 0
x[21] 1
x[22] 0
x[23] 1
x[24] 1
x[25] 1
x[26] 1
x[27] 0
x[28] 0
x[29] 0
x[30] 1
x[31] 0
x[32] 0
x[33] 0
x[34] 0
x[35] 0
x[36] 1
x[37] 0
x[38] 1
x[39] 0
x[40] 0
x[41] 1
x[42] 0
x[43] 0
x[44] 1
x[45] 1
x[46] 0
x[47] 0
x[48] 0
x[49] 1
x[50] 0
x[51] 1
x[52] 0
x[53] 1
x[54] 0
x[55] 0
x[56] 1
x[57] 0
x[58] 0
x[59] 0
x[60] 0
x[61] 1
x[62] 0
x[63] 0
x[64] 1
x[65] 0
x[66] 1
x[67] 0
x[68] 0
x[69] 1
x[70] 0
x[71] 0
x[72] 0
x[73] 0
x[74] 0
x[75] 0
x[76] 0
x[77] 0
x[78] 1
x[79] 0
x[80] 0
x[81] 1
x[82] 0
x[83] 0
x[84] 1
x[85] 0
x[86] 0
x[87] 1
x[88] 0
x[89] 1
x[90] 1
x[91] 0
x[92] 0
x[93] 1
x[94] 0
x[95] 1
x[96] 0
x[97] 1
x[98] 1
x[99] 0
x[100] 1
x[101] 1
x[102] 0
x[103] 0
x[104] 0
x[105] 1
x[106] 0
x[107] 0
x[108] 1
x[109] 0
x[110] 0
x[111] 0
x[112] 1
x[113] 0
x[114] 0
x[115] 1
x[116] 1
x[117] 1
x[118] 0
x[119] 1
x[120] 0
x[121] 0
x[122] 1
x[123] 0
x[124] 0
x[125] 0
x[126] 1
x[127] 1
x[128] 0
x[129] 0
x[130] 0
x[131] 0
x[132] 1
x[133] 0
x[134] 0
x[135] 1
x[136] 0
x[137] 0
x[138] 0
x[139] 0
x[140] 1
x[141] 1.0000002490319797e+00
x[142] 1
x[143] 0
x[144] 0
x[145] 0
x[146] 0
x[147] 1
x[148] 0
x[149] 0
x[150] 1
x[151] 1
x[152] 1
x[153] 1
x[154] 1
x[155] 1
x[156] 0
x[157] 0
x[158] 0
x[159] 1
x[160] 1
x[161] 0
x[162] 0
x[163] 0
x[164] 1
x[165] 0
x[166] 1
x[167] -2.4666666670161116e-07
x[168] 0
x[169] 0
x[170] 0
x[171] 0
x[172] 0
x[173] 1
x[174] 1
x[175] 0
x[176] 0
x[177] 1
x[178] 1
x[179] 0
x[180] 0
x[181] 1
x[182] 0
x[183] 1
x[184] 1
x[185] 1
x[186] 1
x[187] 0
x[188] 1
x[189] 0
x[190] 1
x[191] 0
x[192] 0
x[193] 1
x[194] 0
x[195] 1
x[196] 1
x[197] 0
x[198] 1
x[199] 1
x[200] 0
x[201] 1
x[202] 0
x[203] 0
x[204] 0
x[205] 1
x[206] 1
x[207] 1
x[208] 0
x[209] 1
x[210] 1
x[211] 1
x[212] 0
x[213] 0
x[214] 1
x[215] 0
x[216] 1
x[217] 0
x[218] 0
x[219] 1
x[220] 1
x[221] 0
x[222] 0
x[223] 0
x[224] 1
x[225] 0
x[226] 0
x[227] 0
x[228] 1
x[229] 1
x[230] 0
x[231] 0
x[232] 0
x[233] 0
x[234] 1
x[235] 0
x[236] 0
x[237] 1
x[238] 1
x[239] 1
x[240] 1
x[241] 1
x[242] 0
x[243] 0
x[244] 1
x[245] 0
x[246] 1
x[247] 0
x[248] 1
x[249] 1
x[250] 1
x[251] 1
x[252] 1
x[253] 1
x[254] 1
x[255] 1
x[256] 0
x[257] 1
x[258] 0
x[259] 1
x[260] 0
x[261] 0
x[262] 0
x[263] 1
x[264] 1
x[265] 0
x[266] 1
x[267] 0
x[268] 1
x[269] 0
x[270] 0
x[271] 0
x[272] 0
x[273] 1
x[274] 1
x[275] 0
x[276] 1
x[277] 1
x[278] 1
x[279] 0
x[280] 0
x[281] 1
x[282] 0
x[283] 0
x[284] 0
x[285] 0
x[286] 0
x[287] 0
x[288] 0
x[289] 0
x[290] 0
x[291] 1
x[292] 0
x[293] 0
x[294] 0
x[295] 0
x[296] 1
x[297] 0
x[298] 0
x[299] 1
x[300] 1
x[301] 1
x[302] 1
x[303] 1
x[304] 1
x[305] 0
x[306] 0
x[307] 1
x[308] 0
x[309] 0
x[310] 1
x[311] 1
x[312] 0
x[313] 1.0000002492927702e+00
x[314] 1
x[315] 0
x[316] 0
x[317] 1
x[318] 1
x[319] 1
x[320] 1
x[321] 1
x[322] 0
x[323] 1
x[324] 1
x[325] 0
x[326] 1
x[327] 0
x[328] 1
x[329] 0
x[330] 0
x[331] 0
x[332] 1
x[333] 0
x[334] 1
x[335] 1
x[336] 0
x[337] 0
x[338] 0
x[339] 0
x[340] 0
x[341] 1
x[342] 1
x[343] 0
x[344] 0
x[345] 0
x[346] 1
x[347] 1
x[348] 1
x[349] 0
x[350] 0
x[351] 1
x[352] 1
x[353] 1
x[354] 0
x[355] 0
x[356] 1
x[357] 1
x[358] 0
x[359] -2.4739421376207965e-07
x[360] 0
x[361] 1
x[362] 0
x[363] 1
x[364] 1
x[365] 0
x[366] 1
x[367] 0
x[368] 1
x[369] 1
x[370] 0
x[371] 0
x[372] 0
x[373] 1
x[374] 0
x[375] 1
x[376] 1
x[377] 1
x[378] 1
x[379] 1
x[380] 0
x[381] 1
x[382] 1
x[383] 0
x[384] 1
x[385] 0
x[386] 0
x[387] 0
x[388] 0
x[389] 0
x[390] 1
x[391] 0
x[392] 0
x[393] 1
x[394] 1
x[395] 0
x[396] 1
x[397] 0
x[398] 1
x[399] 0
x[400] 1
x[401] 1
x[402] 1
x[403] 0
x[404] 1
x[405] 0
x[406] 1
x[407] 1
x[408] 1
x[409] 1
x[410] 1
x[411] 1
x[412] 1
x[413] 1
x[414] 1
x[415] 1
x[416] 1
x[417] 0
x[418] 0
x[419] 0
x[420] 0
x[421] 1
x[422] 0
x[423] 0
x[424] 0
x[425] 1
x[426] 0
x[427] 1
x[428] 0
x[429] 0
x[430] 1
x[431] 0
x[432] 1
x[433] 1
x[434] 0
x[435] 1
x[436] 0
x[437] 1
x[438] 1
x[439] 1
x[440] 0
x[441] 1
x[442] 0
x[443] 0
x[444] 0
x[445] 1
x[446] 0
x[447] 0
x[448] 1
x[449] 0
x[450] 0
x[451] 1
x[452] 0
x[453] 1
x[454] 1
x[455] 0
x[456] 0
x[457] 0
x[458] 0
x[459] 1
x[460] 1
x[461] 1
x[462] 1
x[463] 0
x[464] 1
x[465] 0
x[466] 1
x[467] 1
x[468] 1
x[469] 1
x[470] 1
x[471] 0
x[472] 0
x[473] 0
x[474] 0
x[475] 1
x[476] 1
x[477] 1.0000002488376629e+00
x[478] 1
x[479] 0
x[480] 1
x[481] 1
x[482] 0
x[483] 1
x[484] 1
x[485] 0
x[486] 0
x[487] 1
x[488] 1
x[489] 1
x[490] 0
x[491] 1
x[492] 1
x[493] 1
x[494] 1
x[495] 0
x[496] 0
x[497] 0
x[498] 0
x[499] 1
x[500] 1
x[501] 1
x[502] 0
x[503] 0
x[504] 1
x[505] 1
x[506] 1
x[507] 0
x[508] 1
x[509] 0
x[510] 0
x[511] 1
x[512] 0
x[513] 1
x[514] 1
x[515] 1
x[516] 1
x[517] 0
x[518] 1
x[519] 1
x[520] 0
x[521] 1
x[522] 1
x[523] 0
x[524] 1
x[525] 0
x[526] 1
x[527] 1
x[528] 1
x[529] 0
x[530] 1
x[531] 1
x[532] 1
x[533] 0
x[534] 0
x[535] 1
x[536] 1
x[537] 1
x[538] 1
x[539] 1
x[540] 1
x[541] 1
x[542] 0
x[543] 1
x[544] 1
x[545] 0
x[546] 1
x[547] 1
x[548] 1
x[549] 1
x[550] 0
x[551] 1
x[552] 1
x[553] 0
x[554] 1
x[555] 1
x[556] 1
x[557] 1
x[558] 0
x[559] 0
x[560] 1
x[561] 0
x[562] 1
x[563] 0
x[564] 1
x[565] 1
x[566] 0
x[567] 1
x[568] 1
x[569] 1
x[570] 0
x[571] 1
x[572] 0
x[573] 0
x[574] 1
x[575] 1
x[576] 0
x[577] 0
x[578] 1
x[579] 1
x[580] 1
x[581] 0
x[582] 1
x[583] 1
x[584] 0
x[585] 0
x[586] 0
x[587] 1
x[588] 1
x[589] 0
x[590] 0
x[591] 0
x[592] 0
x[593] 1
x[594] 0
x[595] 0
x[596] 1
x[597] 1
x[598] 1
x[599] 1
x[600] 1
x[601] 1
x[602] 0
x[603] 0
x[604] 0
x[605] 1
x[606] 0
x[607] 0
x[608] 0
x[609] 1
x[610] 0
x[611] 0
x[612] 0
x[613] 0
x[614] 0
x[615] 0
x[616] 1
x[617] 1
x[618] 0
x[619] 0
x[620] -2.4666666670161116e-07
x[621] 1
x[622] 1
x[623] 0
x[624] 1
x[625] 0
x[626] 1
x[627] 0
x[628] 1
x[629] 1
x[630] 0
x[631] 0
x[632] 0
x[633] 0
x[634] 0
x[635] 0
x[636] 1
x[637] 0
x[638] 1
x[639] 0
x[640] 0
x[641] 0
x[642] 0
x[643] 1
x[644] 1
x[645] 1
x[646] 0
x[647] 0
x[648] 0
x[649] 1
x[650] 1
x[651] 1
x[652] 1
x[653] 0
x[654] 0
x[655] 1
x[656] 1
x[657] 1
x[658] 0
x[659] 0
x[660] 1
x[661] 1
x[662] 0
x[663] 0
x[664] 0
x[665] 0
x[666] 0
x[667] 1
x[668] 0
x[669] 0
x[670] 0
x[671] 0
x[672] 0
x[673] 0
x[674] 1
x[675] 1
x[676] 1
x[677] 1
x[678] 1
x[679] 0
x[680] 0
x[681] 0
x[682] 1
x[683] 1
x[684] 0
x[685] 1
x[686] 1
x[687] 0
x[688] 0
x[689] 0
x[690] 1
x[691] 0
x[692] 1
x[693] 0
x[694] 0
x[695] 0
x[696] 1
x[697] 0
x[698] 1
x[699] 1
x[700] 0
x[701] 0
x[702] 1
x[703] 1
x[704] 1
x[705] 0
x[706] 1
x[707] 1
x[708] 0
x[709] 0
x[710] 1
x[711] 0
x[712] 1
x[713] 1
x[714] 1
x[715] 1
x[716] 1
x[717] 1
x[718] 1
x[719] 0
x[720] 0
x[721] 1
x[722] 0
x[723] 1
x[724] 0
x[725] 0
x[726] 0
x[727] 1
x[728] 1
x[729] 0
x[730] 0
x[731] 1
x[732] 0
x[733] 0
x[734] 1
x[735] 0
x[736] 0
x[737] 1
x[738] 1
x[739] 0
x[740] 1
x[741] 0
x[742] 0
x[743] 0
x[744] 1
x[745] 0
x[746] 0
x[747] 0
x[748] 0
x[749] 0
x[750] 0
x[751] 0
x[752] 1
x[753] 1
x[754] 0
x[755] 1
x[756] 0
x[757] 1
x[758] 0
x[759] 0
x[760] 1
x[761] 1
x[762] 1
x[763] 0
x[764] 0
x[765] -2.4666666670161116e-07
x[766] 0
x[767] 1
x[768] 1
x[769] 1
x[770] 0
x[771] 1
x[772] 0
x[773] 0
x[774] 0
x[775] 0
x[776] 1
x[777] 1
x[778] 1
x[779] 1
x[780] 1
x[781] 1
x[782] 1
x[783] 0
x[784] 0
x[785] 1
x[786] 1
x[787] 1
x[788] 0
x[789] 1
x[790] 1
x[791] 1
x[792] 1
x[793] 0
x[794] 0
x[795] 1
x[796] 1
x[797] 1
x[798] 0
x[799] 0
x[800] 1
x[801] 0
x[802] 0
x[803] 0
x[804] 1
x[805] 0
x[806] 0
x[807] 0
x[808] 1
x[809] 0
x[810] 1
x[811] 0
x[812] 1
x[813] 0
x[814] 1
x[815] 0
x[816] 1.00000024940396
x[817] 1
x[818] 1
x[819] 1
x[820] 0
x[821] 0
x[822] 0
x[823] 1
x[824] 0
x[825] 0
x[826] 1
x[827] 0
x[828] 1
x[829] 1
x[830] 0
x[831] 0
x[832] 0
x[833] 1
x[834] 0
x[835] 1
x[836] 0
x[837] 1
x[838] 0
x[839] 1
x[840] 0
x[841] -2.4607062659883342e-07
x[842] 1
x[843] 1
x[844] 0
x[845] 1
x[846] 1
x[847] 0
x[848] 1
x[849] 0
x[850] 0
x[851] 1
x[852] 1
x[853] 0
x[854] 1
x[855] 0
x[856] 1
x[857] 1
x[858] 1
x[859] 0
x[860] 0
x[861] 0
x[862] 1
x[863] 1
x[864] 0
x[865] 1
x[866] 0
x[867] 0
x[868] 1
x[869] 0
x[870] 1
x[871] 0
x[872] 1
x[873] 1
x[874] 1
x[875] 1
x[876] 1
x[877] 1
x[878] 0
x[879] 0
x[880] 0
x[881] 1
x[882] 0
x[883] 1
x[884] 1
x[885] 0
x[886] 0
x[887] 1
x[888] 0
x[889] 0
x[890] 1
x[891] 0
x[892] 0
x[893] 0
x[894] 0
x[895] 0
x[896] 1
x[897] 0
x[898] 0
x[899] 1
x[900] 1
x[901] 0
x[902] 0
x[903] 1
x[904] 1
x[905] 0
x[906] 1
x[907] 0
x[908] 0
x[909] 1
x[910] 0
x[911] 1
x[912] 1
x[913] 0
x[914] 1
x[915] 0
x[916] 1
x[917] 0
x[918] 0
x[919] 1
x[920] 1
x[921] 0
x[922] 0
x[923] 1
x[924] 0
x[925] 0
x[926] 0
x[927] 1
x[928] 1
x[929] 1
x[930] 0
x[931] 0
x[932] 0
x[933] 0
x[934] 0
x[935] 1
x[936] 1
x[937] 0
x[938] 1
x[939] 0
x[940] -2.4666666670161116e-07
x[941] 0
x[942] 0
x[943] 1
x[944] 1
x[945] 0
x[946] 1.0000002493946405e+00
x[947] 0
x[948] 1
x[949] 0
x[950] 0
x[951] 1
x[952] 0
x[953] 0
x[954] 1
x[955] 1
x[956] 1
x[957] 1
x[958] 0
x[959] 0
x[960] 1
x[961] 1
x[962] 0
x[963] 1
x[964] 1
x[965] 0
x[966] 0
x[967] 1
x[968] 1
x[969] 0
x[970] 0
x[971] 1
x[972] 0
x[973] 0
x[974] 1
x[975] 0
x[976] 0
x[977] 0
x[978] 1.0000002488266813e+00
x[979] 0
x[980] 1
x[981] 0
x[982] 0
x[983] 1
x[984] 1
x[985] 1
x[986] 1
x[987] 1
x[988] 0
x[989] 0
x[990] 0
x[991] 1
x[992] 1
x[993] 0
x[994] 0
x[995] 0
x[996] 0
x[997] 0
x[998] 1
x[999] 1
